Route #1: 113 82 12 114 29 58 39 10 134 52 107 18
Route #2: 84 30 22 155 138 25 74 79 33 48 34 72
Route #3: 147 118 75 20 16 36 68 14 49 15
Route #4: 69 99 93 103 65 87 97 62 142 128 26 120
Route #5: 38 122 42 3 135 23 31 50 133 131 21 121
Route #6: 37 116 154 98 123 53 144 85 140 73 106 32
Route #7: 17 67 4 35 110 41
Route #8: 61 56 152 105 95 55 115 6 54 143
Route #9: 27 19 46 130 111 132 102 96 150 8 149 71
Route #10: 101 44 124 86 94 104 127 145 28 66 156 59
Route #11: 70 126 1 117 78 9 108 40 146 80 7 137
Route #12: 148 13 64 141 43 47 57 83 91 129
Route #13: 24 92 139 125 112 89 81 109 60 119 45 90
Route #14: 63 88 5 153 136 76 2 77 11 51 100 151
Cost 17736
